16518
0 0 0 0 0 0 0 0 1 0 0 1 1 0 1 0 0 1 0 0 1 0 0 0 1 1 0 1 1 0 
20 11 20 14 20 11 17 24 14 17 24 8 8 20 17 14 14 17 25 11 14 17 24 17 24 8 17 24 24 24 25 25 20 25 20 20 24 24 11 14 17 14 24 8 24 14 17 20 27 8 25 14 14 11 20 20 17 11 11 14 17 24 20 11 11 11 24 17 24 24 20 20 11 17 24 8 24 20 14 24 20 17 20 17 17 17 17 17 20 25 17 24 17 11 17 24 14 14 25 20 8 17 17 25 17 25 17 11 14 28 14 14 17 11 11 25 24 24 24 24 11 8 25 20 8 11 25 24 11 12 17 11 24 25 8 14 17 25 20 17 11 8 20 14 8 25 25 11 14 24 

Total Run Time: 233660 ms.
